
Gurobi 6.5.2 (mac64) logging started Thu Oct  5 12:05:35 2017

Read LP format model from file outdata.lp
Reading time = 0.00 seconds
(null): 3 rows, 11 columns, 33 nonzeros
Optimize a model with 3 rows, 11 columns and 33 nonzeros
Coefficient statistics:
  Matrix range    [8e-01, 2e+01]
  Objective range [1e+00, 2e+01]
  Bounds range    [1e+00, 1e+00]
  RHS range       [0e+00, 0e+00]
Presolve time: 0.00s
Presolved: 3 rows, 11 columns, 33 nonzeros

Iteration    Objective       Primal Inf.    Dual Inf.      Time
       0   -1.1995100e+02   9.361187e+00   0.000000e+00      0s
       5   -6.6009576e+00   0.000000e+00   0.000000e+00      0s

Solved in 5 iterations and 0.00 seconds
Optimal objective -6.600957627e+00

Gurobi 6.5.2 (mac64) logging started Thu Oct  5 12:16:24 2017

Read LP format model from file outdata.lp
Reading time = 0.00 seconds
(null): 3 rows, 11 columns, 33 nonzeros
Optimize a model with 3 rows, 11 columns and 33 nonzeros
Coefficient statistics:
  Matrix range    [8e-01, 2e+01]
  Objective range [1e+00, 2e+01]
  Bounds range    [1e+00, 1e+00]
  RHS range       [0e+00, 0e+00]
Presolve time: 0.00s
Presolved: 3 rows, 11 columns, 33 nonzeros

Iteration    Objective       Primal Inf.    Dual Inf.      Time
       0   -1.1995100e+02   9.361187e+00   0.000000e+00      0s
       5   -6.6009576e+00   0.000000e+00   0.000000e+00      0s

Solved in 5 iterations and 0.00 seconds
Optimal objective -6.600957627e+00

Gurobi 6.5.2 (mac64) logging started Thu Oct  5 12:18:09 2017

Read LP format model from file outdata.lp
Reading time = 0.00 seconds
(null): 3 rows, 11 columns, 33 nonzeros
Optimize a model with 3 rows, 11 columns and 33 nonzeros
Coefficient statistics:
  Matrix range    [8e-01, 2e+01]
  Objective range [1e+00, 2e+01]
  Bounds range    [1e+00, 1e+00]
  RHS range       [0e+00, 0e+00]
Presolve time: 0.00s
Presolved: 3 rows, 11 columns, 33 nonzeros

Iteration    Objective       Primal Inf.    Dual Inf.      Time
       0   -1.1995100e+02   9.361187e+00   0.000000e+00      0s
       5   -6.6009576e+00   0.000000e+00   0.000000e+00      0s

Solved in 5 iterations and 0.00 seconds
Optimal objective -6.600957627e+00

Gurobi 6.5.2 (mac64) logging started Thu Oct  5 12:18:57 2017

Read LP format model from file outdata.lp
Reading time = 0.00 seconds
(null): 3 rows, 11 columns, 33 nonzeros
Optimize a model with 3 rows, 11 columns and 33 nonzeros
Coefficient statistics:
  Matrix range    [8e-01, 2e+01]
  Objective range [1e+00, 2e+01]
  Bounds range    [1e+00, 1e+00]
  RHS range       [0e+00, 0e+00]
Presolve time: 0.00s
Presolved: 3 rows, 11 columns, 33 nonzeros

Iteration    Objective       Primal Inf.    Dual Inf.      Time
       0   -1.1995100e+02   9.361187e+00   0.000000e+00      0s
       5   -6.6009576e+00   0.000000e+00   0.000000e+00      0s

Solved in 5 iterations and 0.00 seconds
Optimal objective -6.600957627e+00

Gurobi 6.5.2 (mac64) logging started Thu Oct  5 12:37:37 2017

Read LP format model from file outdata.lp
Reading time = 0.00 seconds
(null): 3 rows, 11 columns, 33 nonzeros
Optimize a model with 3 rows, 11 columns and 33 nonzeros
Coefficient statistics:
  Matrix range    [8e-01, 2e+01]
  Objective range [1e+00, 2e+01]
  Bounds range    [1e+00, 1e+00]
  RHS range       [0e+00, 0e+00]
Presolve time: 0.00s
Presolved: 3 rows, 11 columns, 33 nonzeros

Iteration    Objective       Primal Inf.    Dual Inf.      Time
       0   -1.1995100e+02   9.361187e+00   0.000000e+00      0s
       5   -6.6009576e+00   0.000000e+00   0.000000e+00      0s

Solved in 5 iterations and 0.00 seconds
Optimal objective -6.600957627e+00

Gurobi 6.5.2 (mac64) logging started Thu Oct  5 12:38:05 2017

Read LP format model from file outdata.lp
Reading time = 0.00 seconds
(null): 3 rows, 11 columns, 33 nonzeros
Optimize a model with 3 rows, 11 columns and 33 nonzeros
Coefficient statistics:
  Matrix range    [8e-01, 2e+01]
  Objective range [1e+00, 2e+01]
  Bounds range    [1e+00, 1e+00]
  RHS range       [0e+00, 0e+00]
Presolve time: 0.00s
Presolved: 3 rows, 11 columns, 33 nonzeros

Iteration    Objective       Primal Inf.    Dual Inf.      Time
       0   -1.1995100e+02   9.361187e+00   0.000000e+00      0s
       5   -6.6009576e+00   0.000000e+00   0.000000e+00      0s

Solved in 5 iterations and 0.00 seconds
Optimal objective -6.600957627e+00

Gurobi 6.5.2 (mac64) logging started Thu Oct  5 12:38:31 2017

Read LP format model from file outdata.lp
Reading time = 0.00 seconds
(null): 3 rows, 11 columns, 33 nonzeros
Optimize a model with 3 rows, 11 columns and 33 nonzeros
Coefficient statistics:
  Matrix range    [8e-01, 2e+01]
  Objective range [1e+00, 2e+01]
  Bounds range    [1e+00, 1e+00]
  RHS range       [0e+00, 0e+00]
Presolve time: 0.00s
Presolved: 3 rows, 11 columns, 33 nonzeros

Iteration    Objective       Primal Inf.    Dual Inf.      Time
       0   -1.1995100e+02   9.361187e+00   0.000000e+00      0s
       5   -6.6009576e+00   0.000000e+00   0.000000e+00      0s

Solved in 5 iterations and 0.00 seconds
Optimal objective -6.600957627e+00

Gurobi 6.5.2 (mac64) logging started Thu Oct  5 12:42:47 2017

Read LP format model from file outdata.lp
Reading time = 0.00 seconds
(null): 3 rows, 11 columns, 33 nonzeros
Optimize a model with 3 rows, 11 columns and 33 nonzeros
Coefficient statistics:
  Matrix range    [8e-01, 2e+01]
  Objective range [1e+00, 2e+01]
  Bounds range    [1e+00, 1e+00]
  RHS range       [0e+00, 0e+00]
Presolve time: 0.00s
Presolved: 3 rows, 11 columns, 33 nonzeros

Iteration    Objective       Primal Inf.    Dual Inf.      Time
       0   -1.1995100e+02   9.361187e+00   0.000000e+00      0s
       5   -6.6009576e+00   0.000000e+00   0.000000e+00      0s

Solved in 5 iterations and 0.00 seconds
Optimal objective -6.600957627e+00

Gurobi 6.5.2 (mac64) logging started Thu Oct  5 12:45:32 2017

Read LP format model from file outdata.lp
Reading time = 0.00 seconds
(null): 3 rows, 11 columns, 33 nonzeros
Optimize a model with 3 rows, 11 columns and 33 nonzeros
Coefficient statistics:
  Matrix range    [8e-01, 2e+01]
  Objective range [1e+00, 2e+01]
  Bounds range    [1e+00, 1e+00]
  RHS range       [0e+00, 0e+00]
Presolve time: 0.00s
Presolved: 3 rows, 11 columns, 33 nonzeros

Iteration    Objective       Primal Inf.    Dual Inf.      Time
       0   -1.1995100e+02   9.361187e+00   0.000000e+00      0s
       5   -6.6009576e+00   0.000000e+00   0.000000e+00      0s

Solved in 5 iterations and 0.00 seconds
Optimal objective -6.600957627e+00

Gurobi 6.5.2 (mac64) logging started Thu Oct  5 12:46:12 2017

Read LP format model from file outdata.lp
Reading time = 0.00 seconds
(null): 3 rows, 11 columns, 33 nonzeros
Optimize a model with 3 rows, 11 columns and 33 nonzeros
Coefficient statistics:
  Matrix range    [8e-01, 2e+01]
  Objective range [1e+00, 2e+01]
  Bounds range    [1e+00, 1e+00]
  RHS range       [0e+00, 0e+00]
Presolve time: 0.00s
Presolved: 3 rows, 11 columns, 33 nonzeros

Iteration    Objective       Primal Inf.    Dual Inf.      Time
       0   -1.1995100e+02   9.361187e+00   0.000000e+00      0s
       5   -6.6009576e+00   0.000000e+00   0.000000e+00      0s

Solved in 5 iterations and 0.00 seconds
Optimal objective -6.600957627e+00

Gurobi 6.5.2 (mac64) logging started Thu Oct  5 12:47:30 2017

Read LP format model from file outdata.lp
Reading time = 0.00 seconds
(null): 3 rows, 11 columns, 33 nonzeros
Optimize a model with 3 rows, 11 columns and 33 nonzeros
Coefficient statistics:
  Matrix range    [8e-01, 2e+01]
  Objective range [1e+00, 2e+01]
  Bounds range    [1e+00, 1e+00]
  RHS range       [0e+00, 0e+00]
Presolve time: 0.00s
Presolved: 3 rows, 11 columns, 33 nonzeros

Iteration    Objective       Primal Inf.    Dual Inf.      Time
       0   -1.1995100e+02   9.361187e+00   0.000000e+00      0s
       5   -6.6009576e+00   0.000000e+00   0.000000e+00      0s

Solved in 5 iterations and 0.00 seconds
Optimal objective -6.600957627e+00

Gurobi 6.5.2 (mac64) logging started Thu Oct  5 12:51:48 2017

Read LP format model from file outdata.lp
Reading time = 0.00 seconds
(null): 3 rows, 11 columns, 33 nonzeros
Optimize a model with 3 rows, 11 columns and 33 nonzeros
Coefficient statistics:
  Matrix range    [8e-01, 2e+01]
  Objective range [1e+00, 2e+01]
  Bounds range    [1e+00, 1e+00]
  RHS range       [0e+00, 0e+00]
Presolve time: 0.00s
Presolved: 3 rows, 11 columns, 33 nonzeros

Iteration    Objective       Primal Inf.    Dual Inf.      Time
       0   -1.1995100e+02   9.361187e+00   0.000000e+00      0s
       5   -6.6009576e+00   0.000000e+00   0.000000e+00      0s

Solved in 5 iterations and 0.00 seconds
Optimal objective -6.600957627e+00

Gurobi 6.5.2 (mac64) logging started Thu Oct  5 12:52:03 2017

Read LP format model from file outdata.lp
Reading time = 0.00 seconds
(null): 3 rows, 11 columns, 33 nonzeros
Optimize a model with 3 rows, 11 columns and 33 nonzeros
Coefficient statistics:
  Matrix range    [8e-01, 2e+01]
  Objective range [1e+00, 2e+01]
  Bounds range    [1e+00, 1e+00]
  RHS range       [0e+00, 0e+00]
Presolve time: 0.00s
Presolved: 3 rows, 11 columns, 33 nonzeros

Iteration    Objective       Primal Inf.    Dual Inf.      Time
       0   -1.1995100e+02   9.361187e+00   0.000000e+00      0s
       5   -6.6009576e+00   0.000000e+00   0.000000e+00      0s

Solved in 5 iterations and 0.00 seconds
Optimal objective -6.600957627e+00

Gurobi 6.5.2 (mac64) logging started Thu Oct  5 12:52:29 2017

Read LP format model from file outdata.lp
Reading time = 0.00 seconds
(null): 3 rows, 11 columns, 33 nonzeros
Optimize a model with 3 rows, 11 columns and 33 nonzeros
Coefficient statistics:
  Matrix range    [8e-01, 2e+01]
  Objective range [1e+00, 2e+01]
  Bounds range    [1e+00, 1e+00]
  RHS range       [0e+00, 0e+00]
Presolve time: 0.00s
Presolved: 3 rows, 11 columns, 33 nonzeros

Iteration    Objective       Primal Inf.    Dual Inf.      Time
       0   -1.1995100e+02   9.361187e+00   0.000000e+00      0s
       5   -6.6009576e+00   0.000000e+00   0.000000e+00      0s

Solved in 5 iterations and 0.00 seconds
Optimal objective -6.600957627e+00

Gurobi 6.5.2 (mac64) logging started Thu Oct  5 12:53:19 2017

Read LP format model from file outdata.lp
Reading time = 0.00 seconds
(null): 3 rows, 11 columns, 33 nonzeros
Optimize a model with 3 rows, 11 columns and 33 nonzeros
Coefficient statistics:
  Matrix range    [8e-01, 2e+01]
  Objective range [1e+00, 2e+01]
  Bounds range    [1e+00, 1e+00]
  RHS range       [0e+00, 0e+00]
Presolve time: 0.00s
Presolved: 3 rows, 11 columns, 33 nonzeros

Iteration    Objective       Primal Inf.    Dual Inf.      Time
       0   -1.1995100e+02   9.361187e+00   0.000000e+00      0s
       5   -6.6009576e+00   0.000000e+00   0.000000e+00      0s

Solved in 5 iterations and 0.00 seconds
Optimal objective -6.600957627e+00

Gurobi 6.5.2 (mac64) logging started Thu Oct  5 13:07:22 2017

Read LP format model from file outdata.lp
Reading time = 0.00 seconds
(null): 3 rows, 11 columns, 33 nonzeros
Optimize a model with 3 rows, 11 columns and 33 nonzeros
Coefficient statistics:
  Matrix range    [8e-01, 2e+01]
  Objective range [1e+00, 2e+01]
  Bounds range    [1e+00, 1e+00]
  RHS range       [0e+00, 0e+00]
Presolve time: 0.00s
Presolved: 3 rows, 11 columns, 33 nonzeros

Iteration    Objective       Primal Inf.    Dual Inf.      Time
       0   -1.1995100e+02   9.361187e+00   0.000000e+00      0s
       5   -6.6009576e+00   0.000000e+00   0.000000e+00      0s

Solved in 5 iterations and 0.00 seconds
Optimal objective -6.600957627e+00

Gurobi 6.5.2 (mac64) logging started Thu Oct  5 13:07:41 2017

Read LP format model from file outdata.lp
Reading time = 0.00 seconds
(null): 3 rows, 11 columns, 33 nonzeros
Optimize a model with 3 rows, 11 columns and 33 nonzeros
Coefficient statistics:
  Matrix range    [8e-01, 2e+01]
  Objective range [1e+00, 2e+01]
  Bounds range    [1e+00, 1e+00]
  RHS range       [0e+00, 0e+00]
Presolve time: 0.00s
Presolved: 3 rows, 11 columns, 33 nonzeros

Iteration    Objective       Primal Inf.    Dual Inf.      Time
       0   -1.1995100e+02   9.361187e+00   0.000000e+00      0s
       5   -6.6009576e+00   0.000000e+00   0.000000e+00      0s

Solved in 5 iterations and 0.00 seconds
Optimal objective -6.600957627e+00

Gurobi 6.5.2 (mac64) logging started Thu Oct  5 13:09:11 2017

Read LP format model from file outdata.lp
Reading time = 0.00 seconds
(null): 3 rows, 11 columns, 33 nonzeros
Optimize a model with 3 rows, 11 columns and 33 nonzeros
Coefficient statistics:
  Matrix range    [8e-01, 2e+01]
  Objective range [1e+00, 2e+01]
  Bounds range    [1e+00, 1e+00]
  RHS range       [0e+00, 0e+00]
Presolve time: 0.00s
Presolved: 3 rows, 11 columns, 33 nonzeros

Iteration    Objective       Primal Inf.    Dual Inf.      Time
       0   -1.1995100e+02   9.361187e+00   0.000000e+00      0s
       5   -6.6009576e+00   0.000000e+00   0.000000e+00      0s

Solved in 5 iterations and 0.00 seconds
Optimal objective -6.600957627e+00

Gurobi 6.5.2 (mac64) logging started Thu Oct  5 13:10:10 2017

Read LP format model from file outdata.lp
Reading time = 0.00 seconds
(null): 3 rows, 11 columns, 33 nonzeros
Optimize a model with 3 rows, 11 columns and 33 nonzeros
Coefficient statistics:
  Matrix range    [8e-01, 2e+01]
  Objective range [1e+00, 2e+01]
  Bounds range    [1e+00, 1e+00]
  RHS range       [0e+00, 0e+00]
Presolve time: 0.00s
Presolved: 3 rows, 11 columns, 33 nonzeros

Iteration    Objective       Primal Inf.    Dual Inf.      Time
       0   -1.1995100e+02   9.361187e+00   0.000000e+00      0s
       5   -6.6009576e+00   0.000000e+00   0.000000e+00      0s

Solved in 5 iterations and 0.00 seconds
Optimal objective -6.600957627e+00

Gurobi 6.5.2 (mac64) logging started Thu Oct  5 13:10:26 2017

Read LP format model from file outdata.lp
Reading time = 0.00 seconds
(null): 3 rows, 11 columns, 33 nonzeros
Optimize a model with 3 rows, 11 columns and 33 nonzeros
Coefficient statistics:
  Matrix range    [8e-01, 2e+01]
  Objective range [1e+00, 2e+01]
  Bounds range    [1e+00, 1e+00]
  RHS range       [0e+00, 0e+00]
Presolve time: 0.00s
Presolved: 3 rows, 11 columns, 33 nonzeros

Iteration    Objective       Primal Inf.    Dual Inf.      Time
       0   -1.1995100e+02   9.361187e+00   0.000000e+00      0s
       5   -6.6009576e+00   0.000000e+00   0.000000e+00      0s

Solved in 5 iterations and 0.00 seconds
Optimal objective -6.600957627e+00

Gurobi 6.5.2 (mac64) logging started Thu Oct  5 13:13:02 2017

Read LP format model from file outdata.lp
Reading time = 0.00 seconds
(null): 3 rows, 11 columns, 33 nonzeros
Optimize a model with 3 rows, 11 columns and 33 nonzeros
Coefficient statistics:
  Matrix range    [8e-01, 2e+01]
  Objective range [1e+00, 2e+01]
  Bounds range    [1e+00, 1e+00]
  RHS range       [0e+00, 0e+00]
Presolve time: 0.00s
Presolved: 3 rows, 11 columns, 33 nonzeros

Iteration    Objective       Primal Inf.    Dual Inf.      Time
       0   -1.1995100e+02   9.361187e+00   0.000000e+00      0s
       5   -6.6009576e+00   0.000000e+00   0.000000e+00      0s

Solved in 5 iterations and 0.00 seconds
Optimal objective -6.600957627e+00

Gurobi 6.5.2 (mac64) logging started Thu Oct  5 20:54:51 2017

Read LP format model from file outdata.lp
Reading time = 0.00 seconds
(null): 3 rows, 11 columns, 33 nonzeros
Optimize a model with 3 rows, 11 columns and 33 nonzeros
Coefficient statistics:
  Matrix range    [8e-01, 2e+01]
  Objective range [1e+00, 2e+01]
  Bounds range    [1e+00, 1e+00]
  RHS range       [0e+00, 0e+00]
Presolve time: 0.00s
Presolved: 3 rows, 11 columns, 33 nonzeros

Iteration    Objective       Primal Inf.    Dual Inf.      Time
       0   -1.1995100e+02   9.361187e+00   0.000000e+00      0s
       5   -6.6009576e+00   0.000000e+00   0.000000e+00      0s

Solved in 5 iterations and 0.00 seconds
Optimal objective -6.600957627e+00

Gurobi 6.5.2 (mac64) logging started Thu Oct  5 20:56:31 2017

Read LP format model from file outdata.lp
Reading time = 0.00 seconds
(null): 3 rows, 11 columns, 33 nonzeros
Optimize a model with 3 rows, 11 columns and 33 nonzeros
Coefficient statistics:
  Matrix range    [8e-01, 2e+01]
  Objective range [1e+00, 2e+01]
  Bounds range    [1e+00, 1e+00]
  RHS range       [0e+00, 0e+00]
Presolve time: 0.00s
Presolved: 3 rows, 11 columns, 33 nonzeros

Iteration    Objective       Primal Inf.    Dual Inf.      Time
       0   -1.1995100e+02   9.361187e+00   0.000000e+00      0s
       5   -6.6009576e+00   0.000000e+00   0.000000e+00      0s

Solved in 5 iterations and 0.00 seconds
Optimal objective -6.600957627e+00

Gurobi 6.5.2 (mac64) logging started Thu Oct  5 20:58:49 2017

Read LP format model from file outdata.lp
Reading time = 0.00 seconds
(null): 3 rows, 11 columns, 33 nonzeros
Optimize a model with 3 rows, 11 columns and 33 nonzeros
Coefficient statistics:
  Matrix range    [8e-01, 2e+01]
  Objective range [1e+00, 2e+01]
  Bounds range    [1e+00, 1e+00]
  RHS range       [0e+00, 0e+00]
Presolve time: 0.00s
Presolved: 3 rows, 11 columns, 33 nonzeros

Iteration    Objective       Primal Inf.    Dual Inf.      Time
       0   -1.1995100e+02   9.361187e+00   0.000000e+00      0s
       5   -6.6009576e+00   0.000000e+00   0.000000e+00      0s

Solved in 5 iterations and 0.00 seconds
Optimal objective -6.600957627e+00

Gurobi 6.5.2 (mac64) logging started Thu Oct  5 21:07:39 2017

Read LP format model from file outdata.lp
Reading time = 0.00 seconds
(null): 3 rows, 11 columns, 33 nonzeros
Optimize a model with 3 rows, 11 columns and 33 nonzeros
Coefficient statistics:
  Matrix range    [8e-01, 2e+01]
  Objective range [1e+00, 2e+01]
  Bounds range    [1e+00, 1e+00]
  RHS range       [0e+00, 0e+00]
Presolve time: 0.00s
Presolved: 3 rows, 11 columns, 33 nonzeros

Iteration    Objective       Primal Inf.    Dual Inf.      Time
       0   -1.1995100e+02   9.361187e+00   0.000000e+00      0s
       5   -6.6009576e+00   0.000000e+00   0.000000e+00      0s

Solved in 5 iterations and 0.00 seconds
Optimal objective -6.600957627e+00

Gurobi 6.5.2 (mac64) logging started Thu Oct  5 21:09:26 2017

Read LP format model from file outdata.lp
Reading time = 0.00 seconds
(null): 3 rows, 11 columns, 33 nonzeros
Optimize a model with 3 rows, 11 columns and 33 nonzeros
Coefficient statistics:
  Matrix range    [8e-01, 2e+01]
  Objective range [1e+00, 2e+01]
  Bounds range    [1e+00, 1e+00]
  RHS range       [0e+00, 0e+00]
Presolve time: 0.00s
Presolved: 3 rows, 11 columns, 33 nonzeros

Iteration    Objective       Primal Inf.    Dual Inf.      Time
       0   -1.1995100e+02   9.361187e+00   0.000000e+00      0s
       5   -6.6009576e+00   0.000000e+00   0.000000e+00      0s

Solved in 5 iterations and 0.00 seconds
Optimal objective -6.600957627e+00

Gurobi 6.5.2 (mac64) logging started Thu Oct  5 21:09:39 2017

Read LP format model from file outdata.lp
Reading time = 0.00 seconds
(null): 3 rows, 11 columns, 33 nonzeros
Optimize a model with 3 rows, 11 columns and 33 nonzeros
Coefficient statistics:
  Matrix range    [8e-01, 2e+01]
  Objective range [1e+00, 2e+01]
  Bounds range    [1e+00, 1e+00]
  RHS range       [0e+00, 0e+00]
Presolve time: 0.00s
Presolved: 3 rows, 11 columns, 33 nonzeros

Iteration    Objective       Primal Inf.    Dual Inf.      Time
       0   -1.1995100e+02   9.361187e+00   0.000000e+00      0s
       5   -6.6009576e+00   0.000000e+00   0.000000e+00      0s

Solved in 5 iterations and 0.00 seconds
Optimal objective -6.600957627e+00

Gurobi 6.5.2 (mac64) logging started Thu Oct  5 21:10:24 2017

Read LP format model from file outdata.lp
Reading time = 0.00 seconds
(null): 3 rows, 11 columns, 33 nonzeros
Optimize a model with 3 rows, 11 columns and 33 nonzeros
Coefficient statistics:
  Matrix range    [8e-01, 2e+01]
  Objective range [1e+00, 2e+01]
  Bounds range    [1e+00, 1e+00]
  RHS range       [0e+00, 0e+00]
Presolve time: 0.00s
Presolved: 3 rows, 11 columns, 33 nonzeros

Iteration    Objective       Primal Inf.    Dual Inf.      Time
       0   -1.1995100e+02   9.361187e+00   0.000000e+00      0s
       5   -6.6009576e+00   0.000000e+00   0.000000e+00      0s

Solved in 5 iterations and 0.00 seconds
Optimal objective -6.600957627e+00

Gurobi 6.5.2 (mac64) logging started Thu Oct  5 21:11:13 2017

Read LP format model from file outdata.lp
Reading time = 0.00 seconds
(null): 3 rows, 11 columns, 33 nonzeros
Optimize a model with 3 rows, 11 columns and 33 nonzeros
Coefficient statistics:
  Matrix range    [8e-01, 2e+01]
  Objective range [1e+00, 2e+01]
  Bounds range    [1e+00, 1e+00]
  RHS range       [0e+00, 0e+00]
Presolve time: 0.00s
Presolved: 3 rows, 11 columns, 33 nonzeros

Iteration    Objective       Primal Inf.    Dual Inf.      Time
       0   -1.1995100e+02   9.361187e+00   0.000000e+00      0s
       5   -6.6009576e+00   0.000000e+00   0.000000e+00      0s

Solved in 5 iterations and 0.00 seconds
Optimal objective -6.600957627e+00

Gurobi 6.5.2 (mac64) logging started Thu Oct  5 21:11:43 2017

Read LP format model from file outdata.lp
Reading time = 0.00 seconds
(null): 3 rows, 11 columns, 33 nonzeros
Optimize a model with 3 rows, 11 columns and 33 nonzeros
Coefficient statistics:
  Matrix range    [8e-01, 2e+01]
  Objective range [1e+00, 2e+01]
  Bounds range    [1e+00, 1e+00]
  RHS range       [0e+00, 0e+00]
Presolve time: 0.00s
Presolved: 3 rows, 11 columns, 33 nonzeros

Iteration    Objective       Primal Inf.    Dual Inf.      Time
       0   -1.1995100e+02   9.361187e+00   0.000000e+00      0s
       5   -6.6009576e+00   0.000000e+00   0.000000e+00      0s

Solved in 5 iterations and 0.00 seconds
Optimal objective -6.600957627e+00

Gurobi 6.5.2 (mac64) logging started Thu Oct  5 21:12:25 2017

Read LP format model from file outdata.lp
Reading time = 0.00 seconds
(null): 3 rows, 11 columns, 33 nonzeros
Optimize a model with 3 rows, 11 columns and 33 nonzeros
Coefficient statistics:
  Matrix range    [8e-01, 2e+01]
  Objective range [1e+00, 2e+01]
  Bounds range    [1e+00, 1e+00]
  RHS range       [0e+00, 0e+00]
Presolve time: 0.00s
Presolved: 3 rows, 11 columns, 33 nonzeros

Iteration    Objective       Primal Inf.    Dual Inf.      Time
       0   -1.1995100e+02   9.361187e+00   0.000000e+00      0s
       5   -6.6009576e+00   0.000000e+00   0.000000e+00      0s

Solved in 5 iterations and 0.00 seconds
Optimal objective -6.600957627e+00

Gurobi 6.5.2 (mac64) logging started Thu Oct  5 21:14:58 2017

Read LP format model from file outdata.lp
Reading time = 0.00 seconds
(null): 3 rows, 11 columns, 33 nonzeros
Optimize a model with 3 rows, 11 columns and 33 nonzeros
Coefficient statistics:
  Matrix range    [8e-01, 2e+01]
  Objective range [1e+00, 2e+01]
  Bounds range    [1e+00, 1e+00]
  RHS range       [0e+00, 0e+00]
Presolve time: 0.00s
Presolved: 3 rows, 11 columns, 33 nonzeros

Iteration    Objective       Primal Inf.    Dual Inf.      Time
       0   -1.1995100e+02   9.361187e+00   0.000000e+00      0s
       5   -6.6009576e+00   0.000000e+00   0.000000e+00      0s

Solved in 5 iterations and 0.00 seconds
Optimal objective -6.600957627e+00

Gurobi 6.5.2 (mac64) logging started Thu Oct  5 21:15:36 2017

Read LP format model from file outdata.lp
Reading time = 0.00 seconds
(null): 3 rows, 11 columns, 33 nonzeros
Optimize a model with 3 rows, 11 columns and 33 nonzeros
Coefficient statistics:
  Matrix range    [8e-01, 2e+01]
  Objective range [1e+00, 2e+01]
  Bounds range    [1e+00, 1e+00]
  RHS range       [0e+00, 0e+00]
Presolve time: 0.00s
Presolved: 3 rows, 11 columns, 33 nonzeros

Iteration    Objective       Primal Inf.    Dual Inf.      Time
       0   -1.1995100e+02   9.361187e+00   0.000000e+00      0s
       5   -6.6009576e+00   0.000000e+00   0.000000e+00      0s

Solved in 5 iterations and 0.00 seconds
Optimal objective -6.600957627e+00

Gurobi 6.5.2 (mac64) logging started Thu Oct  5 21:17:01 2017

Read LP format model from file outdata.lp
Reading time = 0.00 seconds
(null): 3 rows, 11 columns, 33 nonzeros
Optimize a model with 3 rows, 11 columns and 33 nonzeros
Coefficient statistics:
  Matrix range    [8e-01, 2e+01]
  Objective range [1e+00, 2e+01]
  Bounds range    [1e+00, 1e+00]
  RHS range       [0e+00, 0e+00]
Presolve time: 0.00s
Presolved: 3 rows, 11 columns, 33 nonzeros

Iteration    Objective       Primal Inf.    Dual Inf.      Time
       0   -1.1995100e+02   9.361187e+00   0.000000e+00      0s
       5   -6.6009576e+00   0.000000e+00   0.000000e+00      0s

Solved in 5 iterations and 0.00 seconds
Optimal objective -6.600957627e+00

Gurobi 6.5.2 (mac64) logging started Thu Oct  5 21:17:32 2017

Read LP format model from file outdata.lp
Reading time = 0.01 seconds
(null): 3 rows, 11 columns, 33 nonzeros
Optimize a model with 3 rows, 11 columns and 33 nonzeros
Coefficient statistics:
  Matrix range    [8e-01, 2e+01]
  Objective range [1e+00, 2e+01]
  Bounds range    [1e+00, 1e+00]
  RHS range       [0e+00, 0e+00]
Presolve time: 0.00s
Presolved: 3 rows, 11 columns, 33 nonzeros

Iteration    Objective       Primal Inf.    Dual Inf.      Time
       0   -1.1995100e+02   9.361187e+00   0.000000e+00      0s
       5   -6.6009576e+00   0.000000e+00   0.000000e+00      0s

Solved in 5 iterations and 0.00 seconds
Optimal objective -6.600957627e+00

Gurobi 6.5.2 (mac64) logging started Thu Oct  5 21:18:26 2017

Read LP format model from file outdata.lp
Reading time = 0.00 seconds
(null): 3 rows, 11 columns, 33 nonzeros
Optimize a model with 3 rows, 11 columns and 33 nonzeros
Coefficient statistics:
  Matrix range    [8e-01, 2e+01]
  Objective range [1e+00, 2e+01]
  Bounds range    [1e+00, 1e+00]
  RHS range       [0e+00, 0e+00]
Presolve time: 0.00s
Presolved: 3 rows, 11 columns, 33 nonzeros

Iteration    Objective       Primal Inf.    Dual Inf.      Time
       0   -1.1995100e+02   9.361187e+00   0.000000e+00      0s
       5   -6.6009576e+00   0.000000e+00   0.000000e+00      0s

Solved in 5 iterations and 0.00 seconds
Optimal objective -6.600957627e+00

Gurobi 6.5.2 (mac64) logging started Thu Oct  5 21:19:19 2017

Read LP format model from file outdata.lp
Reading time = 0.00 seconds
(null): 3 rows, 11 columns, 33 nonzeros
Optimize a model with 3 rows, 11 columns and 33 nonzeros
Coefficient statistics:
  Matrix range    [8e-01, 2e+01]
  Objective range [1e+00, 2e+01]
  Bounds range    [1e+00, 1e+00]
  RHS range       [0e+00, 0e+00]
Presolve time: 0.00s
Presolved: 3 rows, 11 columns, 33 nonzeros

Iteration    Objective       Primal Inf.    Dual Inf.      Time
       0   -1.1995100e+02   9.361187e+00   0.000000e+00      0s
       5   -6.6009576e+00   0.000000e+00   0.000000e+00      0s

Solved in 5 iterations and 0.00 seconds
Optimal objective -6.600957627e+00

Gurobi 6.5.2 (mac64) logging started Thu Oct  5 21:21:01 2017

Read LP format model from file outdata.lp
Reading time = 0.00 seconds
(null): 3 rows, 11 columns, 33 nonzeros
Optimize a model with 3 rows, 11 columns and 33 nonzeros
Coefficient statistics:
  Matrix range    [8e-01, 2e+01]
  Objective range [1e+00, 2e+01]
  Bounds range    [1e+00, 1e+00]
  RHS range       [0e+00, 0e+00]
Presolve time: 0.00s
Presolved: 3 rows, 11 columns, 33 nonzeros

Iteration    Objective       Primal Inf.    Dual Inf.      Time
       0   -1.1995100e+02   9.361187e+00   0.000000e+00      0s
       5   -6.6009576e+00   0.000000e+00   0.000000e+00      0s

Solved in 5 iterations and 0.00 seconds
Optimal objective -6.600957627e+00

Gurobi 6.5.2 (mac64) logging started Thu Oct  5 21:22:02 2017

Read LP format model from file outdata.lp
Reading time = 0.00 seconds
(null): 3 rows, 11 columns, 33 nonzeros
Optimize a model with 3 rows, 11 columns and 33 nonzeros
Coefficient statistics:
  Matrix range    [8e-01, 2e+01]
  Objective range [1e+00, 2e+01]
  Bounds range    [1e+00, 1e+00]
  RHS range       [0e+00, 0e+00]
Presolve time: 0.00s
Presolved: 3 rows, 11 columns, 33 nonzeros

Iteration    Objective       Primal Inf.    Dual Inf.      Time
       0   -1.1995100e+02   9.361187e+00   0.000000e+00      0s
       5   -6.6009576e+00   0.000000e+00   0.000000e+00      0s

Solved in 5 iterations and 0.00 seconds
Optimal objective -6.600957627e+00

Gurobi 6.5.2 (mac64) logging started Thu Oct  5 21:22:23 2017

Read LP format model from file outdata.lp
Reading time = 0.00 seconds
(null): 3 rows, 11 columns, 33 nonzeros
Optimize a model with 3 rows, 11 columns and 33 nonzeros
Coefficient statistics:
  Matrix range    [8e-01, 2e+01]
  Objective range [1e+00, 2e+01]
  Bounds range    [1e+00, 1e+00]
  RHS range       [0e+00, 0e+00]
Presolve time: 0.00s
Presolved: 3 rows, 11 columns, 33 nonzeros

Iteration    Objective       Primal Inf.    Dual Inf.      Time
       0   -1.1995100e+02   9.361187e+00   0.000000e+00      0s
       5   -6.6009576e+00   0.000000e+00   0.000000e+00      0s

Solved in 5 iterations and 0.00 seconds
Optimal objective -6.600957627e+00

Gurobi 6.5.2 (mac64) logging started Thu Oct  5 21:23:28 2017

Read LP format model from file outdata.lp
Reading time = 0.00 seconds
(null): 3 rows, 11 columns, 33 nonzeros
Optimize a model with 3 rows, 11 columns and 33 nonzeros
Coefficient statistics:
  Matrix range    [8e-01, 2e+01]
  Objective range [1e+00, 2e+01]
  Bounds range    [1e+00, 1e+00]
  RHS range       [0e+00, 0e+00]
Presolve time: 0.00s
Presolved: 3 rows, 11 columns, 33 nonzeros

Iteration    Objective       Primal Inf.    Dual Inf.      Time
       0   -1.1995100e+02   9.361187e+00   0.000000e+00      0s
       5   -6.6009576e+00   0.000000e+00   0.000000e+00      0s

Solved in 5 iterations and 0.00 seconds
Optimal objective -6.600957627e+00

Gurobi 6.5.2 (mac64) logging started Thu Oct  5 21:23:30 2017

Read LP format model from file outdata.lp
Reading time = 0.00 seconds
(null): 3 rows, 11 columns, 33 nonzeros
Optimize a model with 3 rows, 11 columns and 33 nonzeros
Coefficient statistics:
  Matrix range    [8e-01, 2e+01]
  Objective range [1e+00, 2e+01]
  Bounds range    [1e+00, 1e+00]
  RHS range       [0e+00, 0e+00]
Presolve time: 0.00s
Presolved: 3 rows, 11 columns, 33 nonzeros

Iteration    Objective       Primal Inf.    Dual Inf.      Time
       0   -1.1995100e+02   9.361187e+00   0.000000e+00      0s
       5   -6.6009576e+00   0.000000e+00   0.000000e+00      0s

Solved in 5 iterations and 0.00 seconds
Optimal objective -6.600957627e+00

Gurobi 6.5.2 (mac64) logging started Thu Oct  5 21:23:32 2017

Read LP format model from file outdata.lp
Reading time = 0.00 seconds
(null): 3 rows, 11 columns, 33 nonzeros
Optimize a model with 3 rows, 11 columns and 33 nonzeros
Coefficient statistics:
  Matrix range    [8e-01, 2e+01]
  Objective range [1e+00, 2e+01]
  Bounds range    [1e+00, 1e+00]
  RHS range       [0e+00, 0e+00]
Presolve time: 0.00s
Presolved: 3 rows, 11 columns, 33 nonzeros

Iteration    Objective       Primal Inf.    Dual Inf.      Time
       0   -1.1995100e+02   9.361187e+00   0.000000e+00      0s
       5   -6.6009576e+00   0.000000e+00   0.000000e+00      0s

Solved in 5 iterations and 0.00 seconds
Optimal objective -6.600957627e+00

Gurobi 6.5.2 (mac64) logging started Thu Oct  5 21:23:39 2017

Read LP format model from file outdata.lp
Reading time = 0.00 seconds
(null): 3 rows, 11 columns, 33 nonzeros
Optimize a model with 3 rows, 11 columns and 33 nonzeros
Coefficient statistics:
  Matrix range    [8e-01, 2e+01]
  Objective range [1e+00, 2e+01]
  Bounds range    [1e+00, 1e+00]
  RHS range       [0e+00, 0e+00]
Presolve time: 0.00s
Presolved: 3 rows, 11 columns, 33 nonzeros

Iteration    Objective       Primal Inf.    Dual Inf.      Time
       0   -1.1995100e+02   9.361187e+00   0.000000e+00      0s
       5   -6.6009576e+00   0.000000e+00   0.000000e+00      0s

Solved in 5 iterations and 0.00 seconds
Optimal objective -6.600957627e+00

Gurobi 6.5.2 (mac64) logging started Thu Oct  5 21:51:42 2017

Read LP format model from file outdata.lp
Reading time = 0.00 seconds
(null): 3 rows, 11 columns, 33 nonzeros
Optimize a model with 3 rows, 11 columns and 33 nonzeros
Coefficient statistics:
  Matrix range    [8e-01, 2e+01]
  Objective range [1e+00, 2e+01]
  Bounds range    [1e+00, 1e+00]
  RHS range       [0e+00, 0e+00]
Presolve time: 0.00s
Presolved: 3 rows, 11 columns, 33 nonzeros

Iteration    Objective       Primal Inf.    Dual Inf.      Time
       0   -1.1995100e+02   9.361187e+00   0.000000e+00      0s
       5   -6.6009576e+00   0.000000e+00   0.000000e+00      0s

Solved in 5 iterations and 0.00 seconds
Optimal objective -6.600957627e+00

Gurobi 6.5.2 (mac64) logging started Thu Oct  5 22:03:49 2017

Read LP format model from file outdata.lp
Reading time = 0.00 seconds
(null): 3 rows, 11 columns, 33 nonzeros
Optimize a model with 3 rows, 11 columns and 33 nonzeros
Coefficient statistics:
  Matrix range    [8e-01, 2e+01]
  Objective range [1e+00, 2e+01]
  Bounds range    [1e+00, 1e+00]
  RHS range       [0e+00, 0e+00]
Presolve time: 0.00s
Presolved: 3 rows, 11 columns, 33 nonzeros

Iteration    Objective       Primal Inf.    Dual Inf.      Time
       0   -1.1995100e+02   9.361187e+00   0.000000e+00      0s
       5   -6.6009576e+00   0.000000e+00   0.000000e+00      0s

Solved in 5 iterations and 0.00 seconds
Optimal objective -6.600957627e+00

Gurobi 6.5.2 (mac64) logging started Thu Oct  5 22:04:59 2017

Read LP format model from file outdata.lp
Reading time = 0.00 seconds
(null): 3 rows, 11 columns, 33 nonzeros
Optimize a model with 3 rows, 11 columns and 33 nonzeros
Coefficient statistics:
  Matrix range    [8e-01, 2e+01]
  Objective range [1e+00, 2e+01]
  Bounds range    [1e+00, 1e+00]
  RHS range       [0e+00, 0e+00]
Presolve time: 0.00s
Presolved: 3 rows, 11 columns, 33 nonzeros

Iteration    Objective       Primal Inf.    Dual Inf.      Time
       0   -1.1995100e+02   9.361187e+00   0.000000e+00      0s
       5   -6.6009576e+00   0.000000e+00   0.000000e+00      0s

Solved in 5 iterations and 0.00 seconds
Optimal objective -6.600957627e+00

Gurobi 6.5.2 (mac64) logging started Thu Oct  5 22:07:01 2017

Read LP format model from file outdata.lp
Reading time = 0.00 seconds
(null): 3 rows, 11 columns, 33 nonzeros
Optimize a model with 3 rows, 11 columns and 33 nonzeros
Coefficient statistics:
  Matrix range    [8e-01, 2e+01]
  Objective range [1e+00, 2e+01]
  Bounds range    [1e+00, 1e+00]
  RHS range       [0e+00, 0e+00]
Presolve time: 0.00s
Presolved: 3 rows, 11 columns, 33 nonzeros

Iteration    Objective       Primal Inf.    Dual Inf.      Time
       0   -1.1995100e+02   9.361187e+00   0.000000e+00      0s
       5   -6.6009576e+00   0.000000e+00   0.000000e+00      0s

Solved in 5 iterations and 0.00 seconds
Optimal objective -6.600957627e+00

Gurobi 6.5.2 (mac64) logging started Thu Oct  5 22:13:53 2017

Read LP format model from file outdata.lp
Reading time = 0.00 seconds
(null): 3 rows, 11 columns, 33 nonzeros
Optimize a model with 3 rows, 11 columns and 33 nonzeros
Coefficient statistics:
  Matrix range    [8e-01, 2e+01]
  Objective range [1e+00, 2e+01]
  Bounds range    [1e+00, 1e+00]
  RHS range       [0e+00, 0e+00]
Presolve time: 0.00s
Presolved: 3 rows, 11 columns, 33 nonzeros

Iteration    Objective       Primal Inf.    Dual Inf.      Time
       0   -1.1995100e+02   9.361187e+00   0.000000e+00      0s
       5   -6.6009576e+00   0.000000e+00   0.000000e+00      0s

Solved in 5 iterations and 0.00 seconds
Optimal objective -6.600957627e+00

Gurobi 6.5.2 (mac64) logging started Fri Oct  6 14:45:45 2017

Read LP format model from file outdata.lp
Reading time = 0.00 seconds
(null): 3 rows, 11 columns, 33 nonzeros
Optimize a model with 3 rows, 11 columns and 33 nonzeros
Coefficient statistics:
  Matrix range    [8e-01, 2e+01]
  Objective range [1e+00, 2e+01]
  Bounds range    [1e+00, 1e+00]
  RHS range       [0e+00, 0e+00]
Presolve time: 0.00s
Presolved: 3 rows, 11 columns, 33 nonzeros

Iteration    Objective       Primal Inf.    Dual Inf.      Time
       0   -1.1995100e+02   9.361187e+00   0.000000e+00      0s
       5   -6.6009576e+00   0.000000e+00   0.000000e+00      0s

Solved in 5 iterations and 0.00 seconds
Optimal objective -6.600957627e+00

Gurobi 6.5.2 (mac64) logging started Wed Oct 11 11:27:54 2017

Read LP format model from file outdata.lp
Reading time = 0.00 seconds
(null): 3 rows, 11 columns, 33 nonzeros
Optimize a model with 3 rows, 11 columns and 33 nonzeros
Coefficient statistics:
  Matrix range    [8e-01, 2e+01]
  Objective range [1e+00, 2e+01]
  Bounds range    [1e+00, 1e+00]
  RHS range       [0e+00, 0e+00]
Presolve time: 0.00s
Presolved: 3 rows, 11 columns, 33 nonzeros

Iteration    Objective       Primal Inf.    Dual Inf.      Time
       0   -1.1995100e+02   9.361187e+00   0.000000e+00      0s
       5   -6.6009576e+00   0.000000e+00   0.000000e+00      0s

Solved in 5 iterations and 0.00 seconds
Optimal objective -6.600957627e+00

Gurobi 6.5.2 (mac64) logging started Wed Oct 11 11:33:26 2017

Read LP format model from file outdata.lp
Reading time = 0.00 seconds
(null): 3 rows, 11 columns, 33 nonzeros
Optimize a model with 3 rows, 11 columns and 33 nonzeros
Coefficient statistics:
  Matrix range    [8e-01, 2e+01]
  Objective range [1e+00, 2e+01]
  Bounds range    [1e+00, 1e+00]
  RHS range       [0e+00, 0e+00]
Presolve time: 0.00s
Presolved: 3 rows, 11 columns, 33 nonzeros

Iteration    Objective       Primal Inf.    Dual Inf.      Time
       0   -1.1995100e+02   9.361187e+00   0.000000e+00      0s
       5   -6.6009576e+00   0.000000e+00   0.000000e+00      0s

Solved in 5 iterations and 0.00 seconds
Optimal objective -6.600957627e+00
